n_res = 4;
rc = [ 11, 11, 9, 11 ];
n_tasks = 30;
d = [ 6, 4, 2, 1, 5, 1, 3, 5, 6, 6, 4, 1, 6, 5, 3, 3, 2, 3, 3, 7, 4, 8, 1, 8, 8, 5, 1, 5, 2, 1 ];
rr = [| 0, 0, 0, 0, 2, 0, 0, 0, 8, 0, 7, 8, 0, 0, 0, 0, 7, 0, 0, 0, 0, 0, 0, 0, 0, 0, 0, 0, 0, 0
      | 0, 0, 0, 0, 0, 0, 9, 8, 0, 0, 0, 0, 1, 0, 0, 2, 0, 8, 0, 0, 0, 0, 0, 9, 5, 9, 4, 4, 9, 0
      | 7, 1, 0, 6, 0, 0, 0, 0, 0, 7, 0, 0, 0, 0, 5, 0, 0, 0, 5, 0, 0, 0, 0, 0, 0, 0, 0, 0, 0, 0
      | 0, 0, 2, 0, 0, 6, 0, 0, 0, 0, 0, 0, 0, 2, 0, 0, 0, 0, 0, 2, 1, 5, 5, 0, 0, 0, 0, 0, 0, 10 |];
suc = [ { 2 }, 
        { 1 }, 
        { 4 }, 
        { 3 }, 
        { 6 }, 
        { 5 }, 
        { 8 }, 
        { 7 }, 
        { 10 }, 
        { 9 }, 
        { 12 }, 
        { 11 }, 
        { 14 }, 
        { 13 }, 
        { 16 }, 
        { 15 }, 
        { 18 }, 
        { 17 }, 
        { 20 }, 
        { 19 }, 
        { 22 }, 
        { 21 }, 
        { 24 }, 
        { 23 }, 
        { 26 }, 
        { 25 }, 
        { 28 }, 
        { 27 }, 
        { 30 }, 
        { 29 }]; 
